0, 1, 6.98
0, 2, 3.93
0, 3, 9.07
0, 4, 5.59
0, 5, 6.8
0, 6, 2.16
1, 2, 4.06
1, 3, 5.08
1, 4, 8.87
1, 5, 7.07
1, 6, 2.8
2, 3, 3.85
2, 4, 5.6
2, 5, 2.87
2, 6, 4.72
3, 4, 3.58
3, 5, 5.54
3, 6, 3.45
4, 5, 6.95
4, 6, 1.84
5, 6, 6.67
